
Log started (V11.0.0) Sun Apr 13 13:00:42 2008

Tried aggregator 1 time.
Reduced MIP has 140 rows, 4001 columns, and 8040 nonzeros.
Presolve time =    0.03 sec.
Clique table members: 100.
MIP emphasis: balance optimality and feasibility.
MIP search method: dynamic search.
Parallel mode: none, using 1 thread.
Root relaxation solution time =    0.09 sec.

        Nodes                                         Cuts/
   Node  Left     Objective  IInf  Best Integer     Best Node    ItCnt     Gap

*     0+    0                         5196.0000        8.8827      687   99.83%
*     0+    0                           18.0000        8.8827      687   50.65%
      0     0        9.0000    61       18.0000      Fract: 3      710   50.00%
*     0+    0                           17.0000        9.0000      710   47.06%
      0     0       10.1111    66       17.0000      Cuts: 37      784   40.52%
*     0+    0                           16.0000       10.1111      784   36.81%
      0     0       10.8750    63       16.0000      Cuts: 25      812   32.03%
*     0+    0                           15.0000       10.8750      812   27.50%
      0     0       11.3333    53       15.0000      Cuts: 24      839   24.44%
*     0+    0                           14.0000       11.3333      839   19.05%
      0     0       12.0000    16       14.0000       Cuts: 9      852   14.29%
*     0+    0                           13.0000       12.0000      852    7.69%
      0     0       12.0000    27       13.0000       Cuts: 7      871    7.69%
*     0+    0                           12.0000       12.0000      871    0.00%

Clique cuts applied:  6
Flow cuts applied:  3
Mixed integer rounding cuts applied:  22
Zero-half cuts applied:  1

Solution pool: 8 solutions saved.

MIP - Integer optimal solution:  Objective = 1.2000000000e+001
Solution time =    0.48 sec.  Iterations = 871  Nodes = 0


Incumbent solution
Variable Name           Solution Value
Cmax                         12.000000
X_1_2                         1.000000
X_2_5                         1.000000
X_3_17                        1.000000
X_4_3                         1.000000
X_5_17                        1.000000
X_6_1                         1.000000
X_7_35                        1.000000
X_8_38                        1.000000
X_9_11                        1.000000
X_10_33                       1.000000
X_11_40                       1.000000
X_12_26                       1.000000
X_13_18                       1.000000
X_14_13                       1.000000
X_15_30                       1.000000
X_16_17                       1.000000
X_17_33                       1.000000
X_18_18                       1.000000
X_19_11                       1.000000
X_20_40                       1.000000
X_21_20                       1.000000
X_22_18                       1.000000
X_23_40                       1.000000
X_24_23                       1.000000
X_25_40                       1.000000
X_26_36                       1.000000
X_27_36                       1.000000
X_28_28                       1.000000
X_29_12                       1.000000
X_30_10                       1.000000
X_31_10                       1.000000
X_32_24                       1.000000
X_33_32                       1.000000
X_34_24                       1.000000
X_35_15                       1.000000
X_36_33                       1.000000
X_37_8                        1.000000
X_38_38                       1.000000
X_39_29                       1.000000
X_40_3                        1.000000
X_41_5                        1.000000
X_42_5                        1.000000
X_43_9                        1.000000
X_44_14                       1.000000
X_45_21                       1.000000
X_46_8                        1.000000
X_47_20                       1.000000
X_48_23                       1.000000
X_49_27                       1.000000
X_50_38                       1.000000
X_51_8                        1.000000
X_52_34                       1.000000
X_53_37                       1.000000
X_54_16                       1.000000
X_55_29                       1.000000
X_56_16                       1.000000
X_57_8                        1.000000
X_58_35                       1.000000
X_59_28                       1.000000
X_60_27                       1.000000
X_61_25                       1.000000
X_62_7                        1.000000
X_63_6                        1.000000
X_64_37                       1.000000
X_65_5                        1.000000
X_66_39                       1.000000
X_67_16                       1.000000
X_68_20                       1.000000
X_69_34                       1.000000
X_70_17                       1.000000
X_71_31                       1.000000
X_72_9                        1.000000
X_73_13                       1.000000
X_74_10                       1.000000
X_75_36                       1.000000
X_76_26                       1.000000
X_77_22                       1.000000
X_78_6                        1.000000
X_79_18                       1.000000
X_80_23                       1.000000
X_81_10                       1.000000
X_82_6                        1.000000
X_83_33                       1.000000
X_84_27                       1.000000
X_85_35                       1.000000
X_86_17                       1.000000
X_87_34                       1.000000
X_88_15                       1.000000
X_89_28                       1.000000
X_90_21                       1.000000
X_91_4                        1.000000
X_92_10                       1.000000
X_93_34                       1.000000
X_94_19                       1.000000
X_95_27                       1.000000
X_96_9                        1.000000
X_97_34                       1.000000
X_98_13                       1.000000
X_99_26                       1.000000
X_100_25                      1.000000
All other variables in the range 1-4001 are 0.
